c colouring generated by benchmark framework
p edge 96 1368
v 1 9
v 2 2
v 3 12
v 4 4
v 5 6
v 6 7
v 7 10
v 8 0
v 9 3
v 10 1
v 11 5
v 12 8
v 13 1
v 14 6
v 15 7
v 16 10
v 17 0
v 18 3
v 19 5
v 20 2
v 21 9
v 22 8
v 23 11
v 24 4
v 25 11
v 26 5
v 27 4
v 28 9
v 29 2
v 30 12
v 31 1
v 32 8
v 33 6
v 34 7
v 35 10
v 36 3
v 37 10
v 38 12
v 39 3
v 40 1
v 41 11
v 42 0
v 43 2
v 44 9
v 45 4
v 46 5
v 47 8
v 48 6
v 49 3
v 50 8
v 51 0
v 52 2
v 53 10
v 54 5
v 55 4
v 56 1
v 57 7
v 58 6
v 59 12
v 60 11
v 61 12
v 62 11
v 63 1
v 64 8
v 65 4
v 66 2
v 67 0
v 68 3
v 69 5
v 70 10
v 71 9
v 72 7
v 73 5
v 74 9
v 75 6
v 76 11
v 77 7
v 78 10
v 79 8
v 80 4
v 81 1
v 82 3
v 83 0
v 84 12
v 85 8
v 86 4
v 87 10
v 88 0
v 89 3
v 90 1
v 91 7
v 92 11
v 93 12
v 94 9
v 95 6
v 96 2
